(set-info :smt-lib-version 2.6)
(set-logic ALL)
(set-info :source |
Benchmarks used in the followin paper:
Big proof engines as little proof engines: new results on rewrite-based satisfiability procedure
Alessandro Armando, Maria Paola Bonacina, Silvio Ranise, Stephan Schulz. 
PDPAR'05
http://www.ai.dist.unige.it/pdpar05/


|)
(set-info :category "crafted")
(set-info :status unsat)

(declare-sort Element 0)
(declare-fun a_733 () (Seq Element))
(declare-fun a_735 () (Seq Element))
(declare-fun a_737 () (Seq Element))
(declare-fun a_739 () (Seq Element))
(declare-fun a_741 () (Seq Element))
(declare-fun a_743 () (Seq Element))
(declare-fun a_745 () (Seq Element))
(declare-fun a_747 () (Seq Element))
(declare-fun a_749 () (Seq Element))
(declare-fun a_751 () (Seq Element))
(declare-fun a_753 () (Seq Element))
(declare-fun a_755 () (Seq Element))
(declare-fun a_757 () (Seq Element))
(declare-fun a_759 () (Seq Element))
(declare-fun a_760 () (Seq Element))
(declare-fun a_761 () (Seq Element))
(declare-fun a_763 () (Seq Element))
(declare-fun a_765 () (Seq Element))
(declare-fun a_767 () (Seq Element))
(declare-fun a_769 () (Seq Element))
(declare-fun a_771 () (Seq Element))
(declare-fun a_773 () (Seq Element))
(declare-fun a_775 () (Seq Element))
(declare-fun a_777 () (Seq Element))
(declare-fun a_779 () (Seq Element))
(declare-fun a_781 () (Seq Element))
(declare-fun e_732 () Element)
(declare-fun e_734 () Element)
(declare-fun e_736 () Element)
(declare-fun e_738 () Element)
(declare-fun e_740 () Element)
(declare-fun e_742 () Element)
(declare-fun e_744 () Element)
(declare-fun e_746 () Element)
(declare-fun e_748 () Element)
(declare-fun e_750 () Element)
(declare-fun e_752 () Element)
(declare-fun e_754 () Element)
(declare-fun e_756 () Element)
(declare-fun e_758 () Element)
(declare-fun e_762 () Element)
(declare-fun e_764 () Element)
(declare-fun e_766 () Element)
(declare-fun e_768 () Element)
(declare-fun e_770 () Element)
(declare-fun e_772 () Element)
(declare-fun e_774 () Element)
(declare-fun e_776 () Element)
(declare-fun e_778 () Element)
(declare-fun e_780 () Element)
(declare-fun a1 () (Seq Element))
(declare-fun i0 () Int)
(declare-fun i1 () Int)
(declare-fun i2 () Int)
(declare-fun i3 () Int)
(declare-fun i4 () Int)
(declare-fun i5 () Int)
(declare-fun i6 () Int)
(assert (= a_733 (seq.update a1 i5 (seq.unit e_732))))
(assert (= a_735 (seq.update a_733 i2 (seq.unit e_734))))
(assert (= a_737 (seq.update a_735 i4 (seq.unit e_736))))
(assert (= a_739 (seq.update a_737 i6 (seq.unit e_738))))
(assert (= a_741 (seq.update a_739 i0 (seq.unit e_740))))
(assert (= a_743 (seq.update a_741 i1 (seq.unit e_742))))
(assert (= a_745 (seq.update a_743 i0 (seq.unit e_744))))
(assert (= a_747 (seq.update a_745 i3 (seq.unit e_746))))
(assert (= a_749 (seq.update a_747 i1 (seq.unit e_748))))
(assert (= a_751 (seq.update a_749 i3 (seq.unit e_750))))
(assert (= a_753 (seq.update a_751 i3 (seq.unit e_752))))
(assert (= a_755 (seq.update a_753 i2 (seq.unit e_754))))
(assert (= a_757 (seq.update a_755 i4 (seq.unit e_756))))
(assert (= a_759 (seq.update a_757 i0 (seq.unit e_758))))
(assert (= a_760 (seq.update a_735 i6 (seq.unit e_738))))
(assert (= a_761 (seq.update a_760 i4 (seq.unit e_736))))
(assert (= a_763 (seq.update a_761 i0 (seq.unit e_762))))
(assert (= a_765 (seq.update a_763 i1 (seq.unit e_764))))
(assert (= a_767 (seq.update a_765 i0 (seq.unit e_766))))
(assert (= a_769 (seq.update a_767 i3 (seq.unit e_768))))
(assert (= a_771 (seq.update a_769 i3 (seq.unit e_770))))
(assert (= a_773 (seq.update a_771 i1 (seq.unit e_772))))
(assert (= a_775 (seq.update a_773 i3 (seq.unit e_774))))
(assert (= a_777 (seq.update a_775 i2 (seq.unit e_776))))
(assert (= a_779 (seq.update a_777 i4 (seq.unit e_778))))
(assert (= a_781 (seq.update a_779 i0 (seq.unit e_780))))
(assert (= e_732 (seq.nth a1 i2)))
(assert (= e_734 (seq.nth a1 i5)))
(assert (= e_736 (seq.nth a_735 i6)))
(assert (= e_738 (seq.nth a_735 i4)))
(assert (= e_740 (seq.nth a_739 i1)))
(assert (= e_742 (seq.nth a_739 i0)))
(assert (= e_744 (seq.nth a_743 i3)))
(assert (= e_746 (seq.nth a_743 i0)))
(assert (= e_748 (seq.nth a_747 i3)))
(assert (= e_750 (seq.nth a_747 i1)))
(assert (= e_752 (seq.nth a_751 i2)))
(assert (= e_754 (seq.nth a_751 i3)))
(assert (= e_756 (seq.nth a_755 i0)))
(assert (= e_758 (seq.nth a_755 i4)))
(assert (= e_762 (seq.nth a_761 i1)))
(assert (= e_764 (seq.nth a_761 i0)))
(assert (= e_766 (seq.nth a_765 i3)))
(assert (= e_768 (seq.nth a_765 i0)))
(assert (= e_770 (seq.nth a_769 i1)))
(assert (= e_772 (seq.nth a_769 i3)))
(assert (= e_774 (seq.nth a_773 i2)))
(assert (= e_776 (seq.nth a_773 i3)))
(assert (= e_778 (seq.nth a_777 i0)))
(assert (= e_780 (seq.nth a_777 i4)))
(assert (not (= a_759 a_781)))
(check-sat)
(exit)
